c This is QMaxSAT 2017 based on 14.07
c This is Glucose 3.0
c This is MiniSat 2.2.0
c WARNING: for repeatability, setting FPU to use double precision
c card = mrwto, comp = 0, pmodel = 0, narr = 2, mct = 14, verb = 0
cr firstCPXsol 0 0 0
c top = 80229
c |  Number of variables:    450                                              |
c |  Number of clauses:      5412                                             |
c |  Weight of hard clauses: 80229                                            |
c |  Number of soft clauses: 416                                              |
c |  Number of unit soft clauses: 0                                           |
c |  Maximum Cardinality (by unit): 180588       (0           )               |
c last restart ## conflicts  :  0 37 
o 3244 | cpuTime 0.003562 s
c Sum of weights = 90294
c A number of soft clauses remained = 208
c MRWTO encoding for Pseudo-Boolean Constraints
c sizeMax=3244
c No.0 Divisor=15	generated by pow1
c No.1 Divisor=15	generated by pow1
c No.2 Divisor=15	generated by pow1
c p0= 15	p1= 15	p2= 15	
c number of digits = 4
c linkingVar[0].size = 15, linkingVar[1].size = 15, linkingVar[2].size = 15, linkingVar[3].size = 1, 
c Pseudo-Boolean Constraints: 5710 variables and 68616 clauses
c Sum of weights = 90294
c A number of soft clauses remained = 208
c MRWTO encoding for Pseudo-Boolean Constraints
c sizeMax=3244
c No.0 Divisor=15	generated by pow1
c No.1 Divisor=15	generated by pow1
c No.2 Divisor=15	generated by pow1
c p0= 15	p1= 15	p2= 15	
c number of digits = 4
c linkingVar[0].size = 15, linkingVar[1].size = 15, linkingVar[2].size = 15, linkingVar[3].size = 1, 
c Pseudo-Boolean Constraints: 5710 variables and 68616 clauses
c last restart ## conflicts  :  126 608 
o 3152 | cpuTime 0.065383 s
c last restart ## conflicts  :  103 556 
o 3102 | cpuTime 0.099426 s
c last restart ## conflicts  :  122 678 
o 2568 | cpuTime 0.11053 s
c last restart ## conflicts  :  357 416 
o 2442 | cpuTime 0.272499 s
c last restart ## conflicts  :  172 469 
o 2370 | cpuTime 0.428295 s
c last restart ## conflicts  :  82 562 
o 2352 | cpuTime 0.518466 s
c last restart ## conflicts  :  332 414 
o 2332 | cpuTime 1.68362 s
c last restart ## conflicts  :  1854 468 
o 2323 | cpuTime 2.19215 s
c last restart ## conflicts  :  132 495 
o 2322 | cpuTime 2.20968 s
c last restart ## conflicts  :  1715 537 
o 2252 | cpuTime 2.87473 s
c last restart ## conflicts  :  120 546 
o 2127 | cpuTime 2.88882 s
c last restart ## conflicts  :  911 402 
o 2119 | cpuTime 245.118 s
c last restart ## conflicts  :  52743 368 
o 2097 | cpuTime 290.12 s
c last restart ## conflicts  :  14893 355 
o 2095 | cpuTime 300.456 s
c last restart ## conflicts  :  3348 320 
o 2084 | cpuTime 300.889 s
c last restart ## conflicts  :  92750 501 
o 2074 | cpuTime 312.285 s
c last restart ## conflicts  :  2109004 391 
o 2069 | cpuTime 1613.25 s
c last restart ## conflicts  :  308651 566 
o 2062 | cpuTime 2143.28 s
c last restart ## conflicts  :  688035 431 
o 2042 | cpuTime 2272.34 s
c last restart ## conflicts  :  2521 463 
o 2038 | cpuTime 2939.13 s
s UNKNOWN
c Search is stopped by a limit (maybe time-limit)
cr positiVarArr: [ | 9(1->8) | 26(1->10) | 32(2->1) | 46(3->1) | 64(4->3) | 82(5->6) | 103(6->12) | 111(7->5) | 134(8->13) | 147(9->11) | 160(10->9) | 170(11->4) | 195(12->14) | 203(13->7) | 213(14->2) | ]
cr the 1-th chain: [ 1->8->13->7->5->6->12->14->2->1 ] (#non-depot=8) {#cumul.=9}
cr the 2-th chain: [ 1->10->9->11->4->3->1 ] (#non-depot=5) {#cumul.=14}
c Latest Answer = 0 by 21 loops
c restarts              : 73937
c conflicts             : 16030801       (4456 /sec)
c decisions             : 23604737       (0.00 % random) (6562 /sec)
c propagations          : 1377342844     (382867 /sec)
c conflict literals     : 867084681      (21.03 % deleted)
c Memory used           : 342.00 MB
c CPU time              : 3597.45 s
